&CONTROL
   calculation      = 'scf'
   verbosity        = 'low'
   tstress          = .true.
   tprnfor          = .true.
   outdir           = './tmp'
   prefix           = 'si'
   pseudo_dir       = './'
/
&SYSTEM
   ibrav            = 0
   nat              = 2
   ntyp             = 1
   ecutwfc          = 65
   occupations      = 'smearing'
   degauss          = 0.01
   smearing         = 'gauss'
/
&ELECTRONS
   conv_thr         = 1e-10
/
&IONS
/
&CELL
/
&FCP
/
&RISM
/
ATOMIC_SPECIES
Si 28.085 Si.upf

K_POINTS automatic
15 15 15  0 0 0

CELL_PARAMETERS angstrom
-0.00000000000000 2.73396813311352 2.73396813311352
2.73396813311352 0.00000000000000 2.73396813311352
2.73396813311352 2.73396813311352 0.00000000000000

ATOMIC_POSITIONS angstrom
Si 1.3669840666 4.1009521997 4.1009521997  
Si 0.0000000000 0.0000000000 0.0000000000  

