echo

start molecule

title "XeO4 B3LYP geometry optimiz"

print high

charge 0

geometry units angstroms print xyz autosym
Xe    -3.048155    1.737988   -0.015871
O     -3.461183    4.316301    0.006728
O     -4.751369    0.819396   -1.790312
O     -3.509942    0.077841    1.917594
O     -0.459436    1.378927   -0.049210
output xyz XeO4_final_geometry.xyz
end

basis "ao basis"
  Xe library def2-tzvp
   O library sto-3g
end

ecp 
    Xe library def2-tzvp
end


dft
  xc b3lyp
  mult 1
end

driver
  maxiter 100
end


task dft energy
