echo

start molecule

title "HF | Equilibrium Geometry | B3LYP/6-31G(d)"
charge 0

print low

geometry units angstroms print xyz autosym
F     -7.495632    1.264070   -0.005417
H     -8.290988    1.365470   -0.494508
end

basis
  * library 6-31G*
end

dft
  xc b3lyp
  mult 1
end

property
  dipole
  response
end

task dft optimize
task dft freq
task dft property
